eval/18-encs/equiv_enc_657.smt2
; DUP1 DUP3 SHA3 DUP3 SWAP1 => DUP2 DUP2 DUP4 SHA3
(set-option :produce-proofs true)
; 
(set-info :status unknown)
(declare-fun storage_t ((_ BitVec 256) (_ BitVec 256) (_ BitVec 256) Int (_ BitVec 256)) (_ BitVec 256))
(declare-fun storage_s ((_ BitVec 256) (_ BitVec 256) (_ BitVec 256) Int (_ BitVec 256)) (_ BitVec 256))
(declare-fun exc_halt_t (Int) Bool)
(declare-fun exc_halt_s (Int) Bool)
(declare-fun stack_t ((_ BitVec 256) (_ BitVec 256) (_ BitVec 256) Int (_ BitVec 6)) (_ BitVec 256))
(declare-fun stack_s ((_ BitVec 256) (_ BitVec 256) (_ BitVec 256) Int (_ BitVec 6)) (_ BitVec 256))
(declare-fun sc_t (Int) (_ BitVec 6))
(declare-fun sc_s (Int) (_ BitVec 6))
(declare-fun used_gas_t ((_ BitVec 256) (_ BitVec 256) (_ BitVec 256) Int) Int)
(declare-fun used_gas_s ((_ BitVec 256) (_ BitVec 256) (_ BitVec 256) Int) Int)
(declare-fun f_SHA3 ((_ BitVec 256) (_ BitVec 256) (_ BitVec 256) (_ BitVec 256) (_ BitVec 256)) (_ BitVec 256))
(assert
 (exists ((x_0 (_ BitVec 256)) (x_1 (_ BitVec 256)) (x_SHA3_0 (_ BitVec 256)) )(let (($x7344 (forall ((w (_ BitVec 256)) )(let ((?x5903 (storage_t x_0 x_1 x_SHA3_0 4 w)))
 (let ((?x398 (storage_s x_0 x_1 x_SHA3_0 5 w)))
 (= ?x398 ?x5903))))
 ))
 (let (($x7854 (exc_halt_t 4)))
 (let (($x11317 (exc_halt_s 5)))
 (let (($x2060 (= $x11317 $x7854)))
 (let (($x11954 (forall ((n (_ BitVec 6)) )(let ((?x11581 (stack_t x_0 x_1 x_SHA3_0 4 n)))
 (let ((?x753 (stack_s x_0 x_1 x_SHA3_0 5 n)))
 (let (($x3134 (= ?x753 ?x11581)))
 (let ((?x4818 (sc_t 4)))
 (let (($x2764 (bvsle ?x4818 n)))
 (or $x2764 $x3134)))))))
 ))
 (let ((?x4818 (sc_t 4)))
 (let ((?x4319 (sc_s 5)))
 (let (($x3957 (= ?x4319 ?x4818)))
 (let ((?x7483 (used_gas_t x_0 x_1 x_SHA3_0 0)))
 (let ((?x1573 (used_gas_s x_0 x_1 x_SHA3_0 0)))
 (let (($x7241 (= ?x1573 ?x7483)))
 (let (($x11184 (forall ((w (_ BitVec 256)) )(let ((?x1108 (storage_t x_0 x_1 x_SHA3_0 0 w)))
 (let ((?x11871 (storage_s x_0 x_1 x_SHA3_0 0 w)))
 (= ?x11871 ?x1108))))
 ))
 (let (($x56 (exc_halt_t 0)))
 (let (($x57 (exc_halt_s 0)))
 (let (($x58 (= $x57 $x56)))
 (let (($x3515 (forall ((n (_ BitVec 6)) )(let ((?x487 (stack_t x_0 x_1 x_SHA3_0 0 n)))
 (let ((?x6647 (stack_s x_0 x_1 x_SHA3_0 0 n)))
 (let (($x10699 (= ?x6647 ?x487)))
 (let ((?x63 (sc_t 0)))
 (let (($x3382 (bvsle ?x63 n)))
 (or $x3382 $x10699)))))))
 ))
 (let ((?x63 (sc_t 0)))
 (let ((?x72 (sc_s 0)))
 (let (($x73 (= ?x72 ?x63)))
 (let (($x10053 (= $x7854 (or (exc_halt_t 3) (not (bvsle (_ bv0 6) (bvadd (_ bv62 6) (sc_t 3))))))))
 (let (($x7595 (forall ((w (_ BitVec 256)) )(let ((?x5503 (storage_t x_0 x_1 x_SHA3_0 3 w)))
 (let ((?x5903 (storage_t x_0 x_1 x_SHA3_0 4 w)))
 (= ?x5903 ?x5503))))
 ))
 (let (($x2025 (forall ((n (_ BitVec 6)) )(let ((?x10928 (stack_t x_0 x_1 x_SHA3_0 3 n)))
 (let ((?x11581 (stack_t x_0 x_1 x_SHA3_0 4 n)))
 (or (= ?x11581 ?x10928) (bvsle (bvadd (_ bv62 6) (sc_t 3)) n)))))
 ))
 (let (($x11390 (= (used_gas_t x_0 x_1 x_SHA3_0 4) (+ 30 (used_gas_t x_0 x_1 x_SHA3_0 3)))))
 (let ((?x11304 (sc_t 3)))
 (let ((?x5414 (bvadd (_ bv63 6) ?x11304)))
 (let ((?x11946 (stack_t x_0 x_1 x_SHA3_0 3 ?x5414)))
 (let ((?x4908 (f_SHA3 x_0 x_1 x_SHA3_0 ?x11946 (stack_t x_0 x_1 x_SHA3_0 3 (bvadd (_ bv62 6) ?x11304)))))
 (let (($x1066 (exc_halt_t 2)))
 (let (($x1938 (or $x1066 (not (bvsle (_ bv0 6) (bvadd (_ bv60 6) (sc_t 2)))) (not (= ((_ extract 6 6) (bvadd (_ bv1 7) (concat (_ bv0 1) (sc_t 2)))) (_ bv0 1))))))
 (let (($x3614 (exc_halt_t 3)))
 (let (($x1948 (forall ((w (_ BitVec 256)) )(let ((?x9696 (storage_t x_0 x_1 x_SHA3_0 2 w)))
 (let ((?x5503 (storage_t x_0 x_1 x_SHA3_0 3 w)))
 (= ?x5503 ?x9696))))
 ))
 (let (($x11834 (forall ((n (_ BitVec 6)) )(let ((?x8387 (stack_t x_0 x_1 x_SHA3_0 2 n)))
 (let ((?x10928 (stack_t x_0 x_1 x_SHA3_0 3 n)))
 (or (= ?x10928 ?x8387) (bvsle (bvadd (_ bv60 6) (sc_t 2)) n)))))
 ))
 (let ((?x1900 (used_gas_t x_0 x_1 x_SHA3_0 3)))
 (let ((?x6158 (sc_t 2)))
 (let ((?x9406 (bvadd (_ bv63 6) ?x6158)))
 (let ((?x3350 (stack_t x_0 x_1 x_SHA3_0 2 ?x9406)))
 (let (($x2904 (= (stack_t x_0 x_1 x_SHA3_0 3 (bvadd (_ bv62 6) ?x6158)) (stack_t x_0 x_1 x_SHA3_0 2 (bvadd (_ bv62 6) ?x6158)))))
 (let (($x5868 (= (stack_t x_0 x_1 x_SHA3_0 3 (bvadd (_ bv61 6) ?x6158)) (stack_t x_0 x_1 x_SHA3_0 2 (bvadd (_ bv61 6) ?x6158)))))
 (let ((?x4609 (bvadd (_ bv60 6) ?x6158)))
 (let ((?x7110 (stack_t x_0 x_1 x_SHA3_0 2 ?x4609)))
 (let (($x8377 (exc_halt_t 1)))
 (let (($x1517 (not (bvsle (_ bv0 6) (bvadd (_ bv62 6) (sc_t 1))))))
 (let (($x2824 (or $x1517 (not (= ((_ extract 6 6) (bvadd (_ bv1 7) (concat (_ bv0 1) (sc_t 1)))) (_ bv0 1))) $x8377)))
 (let (($x1807 (forall ((w (_ BitVec 256)) )(let ((?x1135 (storage_t x_0 x_1 x_SHA3_0 1 w)))
 (let ((?x9696 (storage_t x_0 x_1 x_SHA3_0 2 w)))
 (= ?x9696 ?x1135))))
 ))
 (let (($x8735 (forall ((n (_ BitVec 6)) )(let ((?x11081 (stack_t x_0 x_1 x_SHA3_0 1 n)))
 (let ((?x8387 (stack_t x_0 x_1 x_SHA3_0 2 n)))
 (let ((?x7154 (sc_t 1)))
 (let ((?x8407 (bvadd (_ bv62 6) ?x7154)))
 (let (($x5765 (bvsle ?x8407 n)))
 (or $x5765 (= ?x8387 ?x11081))))))))
 ))
 (let ((?x8414 (used_gas_t x_0 x_1 x_SHA3_0 2)))
 (let ((?x7154 (sc_t 1)))
 (let ((?x10304 (bvadd (_ bv63 6) ?x7154)))
 (let ((?x10872 (stack_t x_0 x_1 x_SHA3_0 1 ?x10304)))
 (let ((?x8407 (bvadd (_ bv62 6) ?x7154)))
 (let ((?x10326 (stack_t x_0 x_1 x_SHA3_0 1 ?x8407)))
 (let (($x3576 (not (= ((_ extract 6 6) (bvadd (_ bv1 7) (concat (_ bv0 1) ?x63))) (_ bv0 1)))))
 (let (($x10239 (forall ((w (_ BitVec 256)) )(let ((?x1108 (storage_t x_0 x_1 x_SHA3_0 0 w)))
 (let ((?x1135 (storage_t x_0 x_1 x_SHA3_0 1 w)))
 (= ?x1135 ?x1108))))
 ))
 (let (($x11647 (forall ((n (_ BitVec 6)) )(let ((?x487 (stack_t x_0 x_1 x_SHA3_0 0 n)))
 (let ((?x11081 (stack_t x_0 x_1 x_SHA3_0 1 n)))
 (or (= ?x11081 ?x487) (bvsle (bvadd (_ bv62 6) (sc_t 0)) n)))))
 ))
 (let (($x4563 (= ?x7154 (bvadd (_ bv1 6) ?x63))))
 (let (($x1795 (= (stack_t x_0 x_1 x_SHA3_0 1 (bvadd (_ bv63 6) ?x63)) (stack_t x_0 x_1 x_SHA3_0 0 (bvadd (_ bv63 6) ?x63)))))
 (let ((?x9360 (bvadd (_ bv62 6) ?x63)))
 (let ((?x6434 (stack_t x_0 x_1 x_SHA3_0 0 ?x9360)))
 (let (($x2705 (= $x11317 (or (exc_halt_s 4) (not (bvsle (_ bv0 6) (bvadd (_ bv62 6) (sc_s 4))))))))
 (let (($x4850 (forall ((w (_ BitVec 256)) )(let ((?x3732 (storage_s x_0 x_1 x_SHA3_0 4 w)))
 (let ((?x398 (storage_s x_0 x_1 x_SHA3_0 5 w)))
 (= ?x398 ?x3732))))
 ))
 (let (($x11757 (forall ((n (_ BitVec 6)) )(let ((?x342 (stack_s x_0 x_1 x_SHA3_0 4 n)))
 (let ((?x753 (stack_s x_0 x_1 x_SHA3_0 5 n)))
 (or (= ?x753 ?x342) (bvsle (bvadd (_ bv62 6) (sc_s 4)) n)))))
 ))
 (let ((?x4305 (sc_s 4)))
 (let (($x4736 (= ?x4319 ?x4305)))
 (let (($x672 (= (used_gas_s x_0 x_1 x_SHA3_0 5) (+ 3 (used_gas_s x_0 x_1 x_SHA3_0 4)))))
 (let ((?x7990 (bvadd (_ bv63 6) ?x4305)))
 (let ((?x8100 (stack_s x_0 x_1 x_SHA3_0 4 ?x7990)))
 (let (($x2627 (= (stack_s x_0 x_1 x_SHA3_0 5 (bvadd (_ bv63 6) ?x4319)) (stack_s x_0 x_1 x_SHA3_0 4 (bvadd (_ bv62 6) ?x4305)))))
 (let (($x292 (exc_halt_s 3)))
 (let (($x4761 (or $x292 (not (= ((_ extract 6 6) (bvadd (_ bv1 7) (concat (_ bv0 1) (sc_s 3)))) (_ bv0 1))) (not (bvsle (_ bv0 6) (bvadd (_ bv61 6) (sc_s 3)))))))
 (let (($x7172 (exc_halt_s 4)))
 (let (($x8244 (forall ((w (_ BitVec 256)) )(let ((?x8091 (storage_s x_0 x_1 x_SHA3_0 3 w)))
 (let ((?x3732 (storage_s x_0 x_1 x_SHA3_0 4 w)))
 (= ?x3732 ?x8091))))
 ))
 (let (($x3407 (forall ((n (_ BitVec 6)) )(let ((?x7719 (stack_s x_0 x_1 x_SHA3_0 3 n)))
 (let ((?x342 (stack_s x_0 x_1 x_SHA3_0 4 n)))
 (or (bvsle (bvadd (_ bv61 6) (sc_s 3)) n) (= ?x342 ?x7719)))))
 ))
 (let ((?x10506 (used_gas_s x_0 x_1 x_SHA3_0 4)))
 (let ((?x275 (sc_s 3)))
 (let ((?x9770 (bvadd (_ bv63 6) ?x275)))
 (let ((?x3710 (stack_s x_0 x_1 x_SHA3_0 3 ?x9770)))
 (let (($x2395 (= (stack_s x_0 x_1 x_SHA3_0 4 (bvadd (_ bv62 6) ?x275)) (stack_s x_0 x_1 x_SHA3_0 3 (bvadd (_ bv62 6) ?x275)))))
 (let ((?x4343 (bvadd (_ bv61 6) ?x275)))
 (let ((?x8011 (stack_s x_0 x_1 x_SHA3_0 3 ?x4343)))
 (let (($x9832 (= $x292 (or (exc_halt_s 2) (not (bvsle (_ bv0 6) (bvadd (_ bv62 6) (sc_s 2))))))))
 (let (($x1640 (forall ((w (_ BitVec 256)) )(let ((?x11599 (storage_s x_0 x_1 x_SHA3_0 2 w)))
 (let ((?x8091 (storage_s x_0 x_1 x_SHA3_0 3 w)))
 (= ?x8091 ?x11599))))
 ))
 (let (($x6634 (forall ((n (_ BitVec 6)) )(let ((?x11857 (stack_s x_0 x_1 x_SHA3_0 2 n)))
 (let ((?x7719 (stack_s x_0 x_1 x_SHA3_0 3 n)))
 (or (= ?x7719 ?x11857) (bvsle (bvadd (_ bv62 6) (sc_s 2)) n)))))
 ))
 (let ((?x2152 (used_gas_s x_0 x_1 x_SHA3_0 3)))
 (let ((?x218 (sc_s 2)))
 (let ((?x9556 (bvadd (_ bv63 6) ?x218)))
 (let ((?x11670 (stack_s x_0 x_1 x_SHA3_0 2 ?x9556)))
 (let ((?x5843 (f_SHA3 x_0 x_1 x_SHA3_0 ?x11670 (stack_s x_0 x_1 x_SHA3_0 2 (bvadd (_ bv62 6) ?x218)))))
 (let (($x3399 (not (= ((_ extract 6 6) (bvadd (_ bv1 7) (concat (_ bv0 1) (sc_s 1)))) (_ bv0 1)))))
 (let (($x189 (exc_halt_s 1)))
 (let (($x247 (exc_halt_s 2)))
 (let (($x5074 (forall ((w (_ BitVec 256)) )(let ((?x8033 (storage_s x_0 x_1 x_SHA3_0 1 w)))
 (let ((?x11599 (storage_s x_0 x_1 x_SHA3_0 2 w)))
 (= ?x11599 ?x8033))))
 ))
 (let (($x4941 (forall ((n (_ BitVec 6)) )(let ((?x6983 (stack_s x_0 x_1 x_SHA3_0 1 n)))
 (let ((?x11857 (stack_s x_0 x_1 x_SHA3_0 2 n)))
 (or (bvsle (bvadd (_ bv61 6) (sc_s 1)) n) (= ?x11857 ?x6983)))))
 ))
 (let (($x1232 (= ?x218 (bvadd (_ bv1 6) (sc_s 1)))))
 (let ((?x5187 (used_gas_s x_0 x_1 x_SHA3_0 2)))
 (let ((?x154 (sc_s 1)))
 (let ((?x1154 (bvadd (_ bv63 6) ?x154)))
 (let ((?x3331 (stack_s x_0 x_1 x_SHA3_0 1 ?x1154)))
 (let (($x522 (= (stack_s x_0 x_1 x_SHA3_0 2 (bvadd (_ bv62 6) ?x154)) (stack_s x_0 x_1 x_SHA3_0 1 (bvadd (_ bv62 6) ?x154)))))
 (let ((?x484 (bvadd (_ bv61 6) ?x154)))
 (let ((?x644 (stack_s x_0 x_1 x_SHA3_0 1 ?x484)))
 (let (($x7481 (not (bvsle (_ bv0 6) (bvadd (_ bv63 6) ?x72)))))
 (let (($x6969 (or $x57 (not (= ((_ extract 6 6) (bvadd (_ bv1 7) (concat (_ bv0 1) ?x72))) (_ bv0 1))) $x7481)))
 (let (($x11872 (forall ((w (_ BitVec 256)) )(let ((?x11871 (storage_s x_0 x_1 x_SHA3_0 0 w)))
 (let ((?x8033 (storage_s x_0 x_1 x_SHA3_0 1 w)))
 (= ?x8033 ?x11871))))
 ))
 (let (($x10846 (forall ((n (_ BitVec 6)) )(let ((?x6647 (stack_s x_0 x_1 x_SHA3_0 0 n)))
 (let ((?x6983 (stack_s x_0 x_1 x_SHA3_0 1 n)))
 (let ((?x72 (sc_s 0)))
 (let ((?x5517 (bvadd (_ bv63 6) ?x72)))
 (let (($x3750 (bvsle ?x5517 n)))
 (or $x3750 (= ?x6983 ?x6647))))))))
 ))
 (let ((?x5517 (bvadd (_ bv63 6) ?x72)))
 (let ((?x5972 (stack_s x_0 x_1 x_SHA3_0 0 ?x5517)))
 (let (($x4743 (forall ((w0 (_ BitVec 256)) (w1 (_ BitVec 256)) )(let (($x4751 (and (= (stack_s x_0 x_1 x_SHA3_0 2 (bvadd (_ bv63 6) (sc_s 2))) w0) (= (stack_s x_0 x_1 x_SHA3_0 2 (bvadd (_ bv62 6) (sc_s 2))) w1))))
 (let ((?x5058 (f_SHA3 x_0 x_1 x_SHA3_0 w0 w1)))
 (= ?x5058 (ite $x4751 x_SHA3_0 (_ bv0 256))))))
 ))
 (let (($x621 (forall ((w (_ BitVec 256)) )(let ((?x11871 (storage_s x_0 x_1 x_SHA3_0 0 w)))
 (= ?x11871 (_ bv0 256))))
 ))
 (let (($x6651 (= ?x1573 0)))
 (let (($x9480 (not $x57)))
 (let (($x1076 (= (stack_s x_0 x_1 x_SHA3_0 0 (_ bv1 6)) x_1)))
 (let (($x6567 (= (stack_s x_0 x_1 x_SHA3_0 0 (_ bv0 6)) x_0)))
 (let (($x11128 (= ?x72 (_ bv2 6))))
 (and $x11128 $x6567 $x1076 $x9480 $x6651 $x621 $x4743 (= ?x3331 ?x5972) (= (stack_s x_0 x_1 x_SHA3_0 1 ?x5517) ?x5972) (= (used_gas_s x_0 x_1 x_SHA3_0 1) (+ 3 ?x1573)) (= ?x154 (bvadd (_ bv1 6) ?x72)) $x10846 $x11872 (= $x189 $x6969) (= ?x11670 ?x644) (= (stack_s x_0 x_1 x_SHA3_0 2 ?x484) ?x644) $x522 (= (stack_s x_0 x_1 x_SHA3_0 2 ?x1154) ?x3331) (= ?x5187 (+ 3 (used_gas_s x_0 x_1 x_SHA3_0 1))) $x1232 $x4941 $x5074 (= $x247 (or $x189 (not (bvsle (_ bv0 6) ?x484)) $x3399)) (= ?x3710 ?x5843) (= ?x2152 (+ 30 ?x5187)) (= ?x275 ?x9556) $x6634 $x1640 $x9832 (= ?x8100 ?x8011) (= (stack_s x_0 x_1 x_SHA3_0 4 ?x4343) ?x8011) $x2395 (= (stack_s x_0 x_1 x_SHA3_0 4 ?x9770) ?x3710) (= ?x10506 (+ 3 ?x2152)) (= ?x4305 (bvadd (_ bv1 6) ?x275)) $x3407 $x8244 (= $x7172 $x4761) $x2627 (= (stack_s x_0 x_1 x_SHA3_0 5 (bvadd (_ bv62 6) ?x4319)) ?x8100) $x672 $x4736 $x11757 $x4850 $x2705 (= ?x10872 ?x6434) (= (stack_t x_0 x_1 x_SHA3_0 1 ?x9360) ?x6434) $x1795 (= (used_gas_t x_0 x_1 x_SHA3_0 1) (+ 3 ?x7483)) $x4563 $x11647 $x10239 (= $x8377 (or $x56 $x3576 (not (bvsle (_ bv0 6) ?x9360)))) (= ?x3350 ?x10326) (= (stack_t x_0 x_1 x_SHA3_0 2 ?x8407) ?x10326) (= (stack_t x_0 x_1 x_SHA3_0 2 ?x10304) ?x10872) (= ?x8414 (+ 3 (used_gas_t x_0 x_1 x_SHA3_0 1))) (= ?x6158 (bvadd (_ bv1 6) ?x7154)) $x8735 $x1807 (= $x1066 $x2824) (= ?x11946 ?x7110) (= (stack_t x_0 x_1 x_SHA3_0 3 ?x4609) ?x7110) $x5868 $x2904 (= (stack_t x_0 x_1 x_SHA3_0 3 ?x9406) ?x3350) (= ?x1900 (+ 3 ?x8414)) (= ?x11304 (bvadd (_ bv1 6) ?x6158)) $x11834 $x1948 (= $x3614 $x1938) (= (stack_t x_0 x_1 x_SHA3_0 4 (bvadd (_ bv63 6) ?x4818)) ?x4908) $x11390 (= ?x4818 ?x5414) $x2025 $x7595 $x10053 $x73 $x3515 $x58 $x11184 $x7241 (not (and $x3957 $x11954 $x2060 $x7344)))))))))))))))))))))))))))))))))))))))))))))))))))))))))))))))))))))))))))))))))))))))))))))))))))))))))))))))))))))
 )
(check-sat)
(get-proof)
